Problem:    TP
Rows:       154
Columns:    64 (64 integer, 64 binary)
Non-zeros:  318
Status:     INTEGER OPTIMAL
Objective:  Z = 48.26 (MINimum)

   No.   Row name        Activity     Lower bound   Upper bound
------ ------------    ------------- ------------- -------------
     1 Z                       48.26                             
     2 Rest1[6]                    1             1               
     3 Rest1[7]                    2             1               
     4 Rest1[1]                    1             1               
     5 Rest1[2]                    3             1               
     6 Rest1[3]                    2             1               
     7 Rest1[4]                    2             1               
     8 Rest1[5]                    2             1               
     9 Rest2[0,1]                  0            -0             = 
    10 Rest2[6,1]                  0            -0             = 
    11 Rest2[7,1]                  0            -0             = 
    12 Rest2[1,1]                  0            -0             = 
    13 Rest2[2,1]                  0            -0             = 
    14 Rest2[3,1]                  0            -0             = 
    15 Rest2[4,1]                  0            -0             = 
    16 Rest2[5,1]                  0            -0             = 
    17 Rest3[1]                    1             1             = 
    18 Rest4[1]                    0                           1 
    19 Rest51[0,1]                 0                          -0 
    20 Rest51[6,1]              0.33                        0.65 
    21 Rest51[7,1]              0.58                         0.9 
    22 Rest51[1,1]                 0                        1.42 
    23 Rest51[2,1]              0.58                         1.5 
    24 Rest51[3,1]              0.58                        1.12 
    25 Rest51[4,1]              0.67                        0.98 
    26 Rest51[5,1]              0.75                        1.15 
    27 Rest52[0,1]                 0                          -0 
    28 Rest52[6,1]             -0.67                       -0.65 
    29 Rest52[7,1]              -1.5                        -0.9 
    30 Rest52[1,1]                -2                       -1.42 
    31 Rest52[2,1]              -1.5                        -1.5 
    32 Rest52[3,1]              -1.5                       -1.12 
    33 Rest52[4,1]              -1.5                       -0.98 
    34 Rest52[5,1]             -1.34                       -1.15 
    35 Rest6[0,0,1]                0                       1e+10 
    36 Rest6[0,6,1]                0                       1e+10 
    37 Rest6[0,7,1]                0                       1e+10 
    38 Rest6[0,1,1]                0                       1e+10 
    39 Rest6[0,2,1]            1e+10                       1e+10 
    40 Rest6[0,3,1]                0                       1e+10 
    41 Rest6[0,4,1]                0                       1e+10 
    42 Rest6[0,5,1]                0                       1e+10 
    43 Rest6[6,0,1]                0                       1e+10 
    44 Rest6[6,6,1]                0                       1e+10 
    45 Rest6[6,7,1]                0                       1e+10 
    46 Rest6[6,1,1]                0                       1e+10 
    47 Rest6[6,2,1]                0                       1e+10 
    48 Rest6[6,3,1]                0                       1e+10 
    49 Rest6[6,4,1]                0                       1e+10 
    50 Rest6[6,5,1]                0                       1e+10 
    51 Rest6[7,0,1]                0                       1e+10 
    52 Rest6[7,6,1]                0                       1e+10 
    53 Rest6[7,7,1]                0                       1e+10 
    54 Rest6[7,1,1]                0                       1e+10 
    55 Rest6[7,2,1]                0                       1e+10 
    56 Rest6[7,3,1]                0                       1e+10 
    57 Rest6[7,4,1]                0                       1e+10 
    58 Rest6[7,5,1]                0                       1e+10 
    59 Rest6[1,0,1]                0                       1e+10 
    60 Rest6[1,6,1]                0                       1e+10 
    61 Rest6[1,7,1]                0                       1e+10 
    62 Rest6[1,1,1]            1e+10                       1e+10 
    63 Rest6[1,2,1]                0                       1e+10 
    64 Rest6[1,3,1]                0                       1e+10 
    65 Rest6[1,4,1]                0                       1e+10 
    66 Rest6[1,5,1]                0                       1e+10 
    67 Rest6[2,0,1]                0                       1e+10 
    68 Rest6[2,6,1]                0                       1e+10 
    69 Rest6[2,7,1]            1e+10                       1e+10 
    70 Rest6[2,1,1]                0                       1e+10 
    71 Rest6[2,2,1]            1e+10                       1e+10 
    72 Rest6[2,3,1]            1e+10                       1e+10 
    73 Rest6[2,4,1]            1e+10                       1e+10 
    74 Rest6[2,5,1]                0                       1e+10 
    75 Rest6[3,0,1]                0                       1e+10 
    76 Rest6[3,6,1]            1e+10                       1e+10 
    77 Rest6[3,7,1]            1e+10                       1e+10 
    78 Rest6[3,1,1]                0                       1e+10 
    79 Rest6[3,2,1]            1e+10                       1e+10 
    80 Rest6[3,3,1]            1e+10                       1e+10 
    81 Rest6[3,4,1]                0                       1e+10 
    82 Rest6[3,5,1]            1e+10                       1e+10 
    83 Rest6[4,0,1]                0                       1e+10 
    84 Rest6[4,6,1]                0                       1e+10 
    85 Rest6[4,7,1]                0                       1e+10 
    86 Rest6[4,1,1]                0                       1e+10 
    87 Rest6[4,2,1]                0                       1e+10 
    88 Rest6[4,3,1]                0                       1e+10 
    89 Rest6[4,4,1]            1e+10                       1e+10 
    90 Rest6[4,5,1]                0                       1e+10 
    91 Rest6[5,0,1]                0                       1e+10 
    92 Rest6[5,6,1]                0                       1e+10 
    93 Rest6[5,7,1]                0                       1e+10 
    94 Rest6[5,1,1]                0                       1e+10 
    95 Rest6[5,2,1]                0                       1e+10 
    96 Rest6[5,3,1]                0                       1e+10 
    97 Rest6[5,4,1]                0                       1e+10 
    98 Rest6[5,5,1]            1e+10                       1e+10 
    99 Rest7[6,1]                  0            -4            15 
   100 Rest7[7,1]                  0            -5            14 
   101 Rest7[1,1]                  0            -3            14 
   102 Rest7[2,1]                  0            -2            16 
   103 Rest7[3,1]                  0            -5            14 
   104 Rest7[4,1]                  0            -1            17 
   105 Rest7[5,1]                  0            -2            17 
   106 Rest8[6,6,1]                0                       1e+09 
   107 Rest8[6,7,1]                0                       1e+09 
   108 Rest8[6,1,1]                0                       1e+09 
   109 Rest8[6,2,1]                0                       1e+09 
   110 Rest8[6,3,1]                0                       1e+09 
   111 Rest8[6,4,1]                0                       1e+09 
   112 Rest8[6,5,1]                0                       1e+09 
   113 Rest8[7,6,1]                0                       1e+09 
   114 Rest8[7,7,1]                0                       1e+09 
   115 Rest8[7,1,1]                0                       1e+09 
   116 Rest8[7,2,1]                0                       1e+09 
   117 Rest8[7,3,1]                0                       1e+09 
   118 Rest8[7,4,1]                0                       1e+09 
   119 Rest8[7,5,1]                0                       1e+09 
   120 Rest8[1,6,1]                0                       1e+09 
   121 Rest8[1,7,1]                0                       1e+09 
   122 Rest8[1,1,1]            1e+09                       1e+09 
   123 Rest8[1,2,1]                0                       1e+09 
   124 Rest8[1,3,1]                0                       1e+09 
   125 Rest8[1,4,1]                0                       1e+09 
   126 Rest8[1,5,1]                0                       1e+09 
   127 Rest8[2,6,1]                0                       1e+09 
   128 Rest8[2,7,1]            1e+09                       1e+09 
   129 Rest8[2,1,1]                0                       1e+09 
   130 Rest8[2,2,1]            1e+09                       1e+09 
   131 Rest8[2,3,1]            1e+09                       1e+09 
   132 Rest8[2,4,1]            1e+09                       1e+09 
   133 Rest8[2,5,1]                0                       1e+09 
   134 Rest8[3,6,1]            1e+09                       1e+09 
   135 Rest8[3,7,1]            1e+09                       1e+09 
   136 Rest8[3,1,1]                0                       1e+09 
   137 Rest8[3,2,1]            1e+09                       1e+09 
   138 Rest8[3,3,1]            1e+09                       1e+09 
   139 Rest8[3,4,1]                0                       1e+09 
   140 Rest8[3,5,1]            1e+09                       1e+09 
   141 Rest8[4,6,1]                0                       1e+09 
   142 Rest8[4,7,1]                0                       1e+09 
   143 Rest8[4,1,1]                0                       1e+09 
   144 Rest8[4,2,1]                0                       1e+09 
   145 Rest8[4,3,1]                0                       1e+09 
   146 Rest8[4,4,1]            1e+09                       1e+09 
   147 Rest8[4,5,1]                0                       1e+09 
   148 Rest8[5,6,1]                0                       1e+09 
   149 Rest8[5,7,1]                0                       1e+09 
   150 Rest8[5,1,1]                0                       1e+09 
   151 Rest8[5,2,1]                0                       1e+09 
   152 Rest8[5,3,1]                0                       1e+09 
   153 Rest8[5,4,1]                0                       1e+09 
   154 Rest8[5,5,1]            1e+09                       1e+09 

   No. Column name       Activity     Lower bound   Upper bound
------ ------------    ------------- ------------- -------------
     1 x[0,0,1]     *              0             0             1 
     2 x[0,6,1]     *              0             0             1 
     3 x[0,7,1]     *              0             0             1 
     4 x[0,1,1]     *              0             0             1 
     5 x[0,2,1]     *              1             0             1 
     6 x[0,3,1]     *              0             0             1 
     7 x[0,4,1]     *              0             0             1 
     8 x[0,5,1]     *              0             0             1 
     9 x[6,0,1]     *              0             0             1 
    10 x[6,6,1]     *              0             0             1 
    11 x[6,7,1]     *              0             0             1 
    12 x[6,1,1]     *              0             0             1 
    13 x[6,2,1]     *              0             0             1 
    14 x[6,3,1]     *              0             0             1 
    15 x[6,4,1]     *              0             0             1 
    16 x[6,5,1]     *              0             0             1 
    17 x[7,0,1]     *              0             0             1 
    18 x[7,6,1]     *              0             0             1 
    19 x[7,7,1]     *              0             0             1 
    20 x[7,1,1]     *              0             0             1 
    21 x[7,2,1]     *              0             0             1 
    22 x[7,3,1]     *              0             0             1 
    23 x[7,4,1]     *              0             0             1 
    24 x[7,5,1]     *              0             0             1 
    25 x[1,0,1]     *              0             0             1 
    26 x[1,6,1]     *              0             0             1 
    27 x[1,7,1]     *              0             0             1 
    28 x[1,1,1]     *              1             0             1 
    29 x[1,2,1]     *              0             0             1 
    30 x[1,3,1]     *              0             0             1 
    31 x[1,4,1]     *              0             0             1 
    32 x[1,5,1]     *              0             0             1 
    33 x[2,0,1]     *              0             0             1 
    34 x[2,6,1]     *              0             0             1 
    35 x[2,7,1]     *              1             0             1 
    36 x[2,1,1]     *              0             0             1 
    37 x[2,2,1]     *              1             0             1 
    38 x[2,3,1]     *              1             0             1 
    39 x[2,4,1]     *              1             0             1 
    40 x[2,5,1]     *              0             0             1 
    41 x[3,0,1]     *              0             0             1 
    42 x[3,6,1]     *              1             0             1 
    43 x[3,7,1]     *              1             0             1 
    44 x[3,1,1]     *              0             0             1 
    45 x[3,2,1]     *              1             0             1 
    46 x[3,3,1]     *              1             0             1 
    47 x[3,4,1]     *              0             0             1 
    48 x[3,5,1]     *              1             0             1 
    49 x[4,0,1]     *              0             0             1 
    50 x[4,6,1]     *              0             0             1 
    51 x[4,7,1]     *              0             0             1 
    52 x[4,1,1]     *              0             0             1 
    53 x[4,2,1]     *              0             0             1 
    54 x[4,3,1]     *              0             0             1 
    55 x[4,4,1]     *              1             0             1 
    56 x[4,5,1]     *              0             0             1 
    57 x[5,0,1]     *              0             0             1 
    58 x[5,6,1]     *              0             0             1 
    59 x[5,7,1]     *              0             0             1 
    60 x[5,1,1]     *              0             0             1 
    61 x[5,2,1]     *              0             0             1 
    62 x[5,3,1]     *              0             0             1 
    63 x[5,4,1]     *              0             0             1 
    64 x[5,5,1]     *              1             0             1 

Integer feasibility conditions:

KKT.PE: max.abs.err = 0.00e+00 on row 0
        max.rel.err = 0.00e+00 on row 0
        High quality

KKT.PB: max.abs.err = 9.90e+00 on row 69
        max.rel.err = 4.00e-09 on row 128
        Medium quality

End of output
